c nombre: 65
c densidad: 0.7
p edges 45 665
e 1 2
e 1 3
e 1 5
e 1 6
e 1 8
e 1 11
e 1 12
e 1 13
e 1 14
e 1 15
e 1 17
e 1 21
e 1 22
e 1 23
e 1 24
e 1 25
e 1 28
e 1 29
e 1 30
e 1 32
e 1 33
e 1 34
e 1 39
e 1 40
e 1 41
e 1 42
e 1 43
e 1 44
e 1 45
e 2 3
e 2 5
e 2 6
e 2 8
e 2 9
e 2 10
e 2 12
e 2 13
e 2 14
e 2 15
e 2 16
e 2 18
e 2 19
e 2 22
e 2 25
e 2 26
e 2 27
e 2 29
e 2 30
e 2 32
e 2 33
e 2 34
e 2 35
e 2 38
e 2 39
e 2 40
e 2 41
e 2 42
e 2 44
e 3 4
e 3 5
e 3 6
e 3 7
e 3 8
e 3 9
e 3 12
e 3 14
e 3 17
e 3 18
e 3 19
e 3 21
e 3 22
e 3 23
e 3 24
e 3 25
e 3 26
e 3 27
e 3 28
e 3 32
e 3 33
e 3 34
e 3 35
e 3 36
e 3 37
e 3 38
e 3 39
e 3 40
e 3 42
e 3 43
e 3 44
e 3 45
e 4 5
e 4 6
e 4 7
e 4 8
e 4 10
e 4 11
e 4 12
e 4 14
e 4 15
e 4 16
e 4 17
e 4 18
e 4 19
e 4 20
e 4 21
e 4 23
e 4 27
e 4 29
e 4 30
e 4 32
e 4 34
e 4 35
e 4 36
e 4 41
e 4 43
e 4 44
e 5 6
e 5 7
e 5 8
e 5 9
e 5 13
e 5 14
e 5 16
e 5 17
e 5 19
e 5 20
e 5 21
e 5 23
e 5 24
e 5 25
e 5 26
e 5 27
e 5 28
e 5 29
e 5 30
e 5 31
e 5 32
e 5 34
e 5 37
e 5 38
e 5 39
e 5 40
e 5 41
e 5 42
e 5 43
e 6 8
e 6 9
e 6 10
e 6 11
e 6 12
e 6 14
e 6 17
e 6 18
e 6 19
e 6 20
e 6 21
e 6 22
e 6 24
e 6 25
e 6 26
e 6 29
e 6 30
e 6 31
e 6 32
e 6 33
e 6 34
e 6 35
e 6 36
e 6 38
e 6 39
e 6 41
e 6 43
e 6 45
e 7 8
e 7 10
e 7 12
e 7 13
e 7 14
e 7 15
e 7 16
e 7 17
e 7 18
e 7 19
e 7 20
e 7 21
e 7 23
e 7 24
e 7 25
e 7 28
e 7 29
e 7 36
e 7 37
e 7 38
e 7 39
e 7 40
e 7 42
e 7 43
e 7 44
e 7 45
e 8 10
e 8 11
e 8 12
e 8 13
e 8 16
e 8 18
e 8 19
e 8 20
e 8 21
e 8 22
e 8 24
e 8 27
e 8 28
e 8 31
e 8 34
e 8 39
e 8 40
e 8 42
e 8 44
e 8 45
e 9 12
e 9 13
e 9 14
e 9 15
e 9 17
e 9 18
e 9 19
e 9 20
e 9 21
e 9 22
e 9 25
e 9 26
e 9 29
e 9 30
e 9 32
e 9 33
e 9 34
e 9 36
e 9 40
e 9 41
e 9 45
e 10 11
e 10 13
e 10 14
e 10 16
e 10 17
e 10 18
e 10 19
e 10 20
e 10 21
e 10 22
e 10 23
e 10 24
e 10 25
e 10 26
e 10 27
e 10 28
e 10 29
e 10 30
e 10 31
e 10 32
e 10 33
e 10 34
e 10 35
e 10 38
e 10 39
e 10 40
e 10 41
e 10 43
e 10 44
e 11 12
e 11 13
e 11 14
e 11 16
e 11 17
e 11 18
e 11 19
e 11 20
e 11 21
e 11 22
e 11 23
e 11 26
e 11 27
e 11 28
e 11 30
e 11 31
e 11 32
e 11 33
e 11 34
e 11 35
e 11 38
e 11 39
e 11 40
e 11 42
e 11 43
e 12 13
e 12 14
e 12 15
e 12 16
e 12 17
e 12 19
e 12 20
e 12 22
e 12 23
e 12 24
e 12 25
e 12 26
e 12 27
e 12 30
e 12 31
e 12 32
e 12 35
e 12 36
e 12 37
e 12 38
e 12 40
e 12 42
e 12 43
e 12 44
e 13 14
e 13 17
e 13 18
e 13 19
e 13 20
e 13 21
e 13 22
e 13 23
e 13 24
e 13 25
e 13 26
e 13 27
e 13 28
e 13 30
e 13 31
e 13 33
e 13 34
e 13 37
e 13 38
e 13 39
e 13 40
e 13 41
e 13 42
e 13 45
e 14 15
e 14 18
e 14 19
e 14 23
e 14 24
e 14 27
e 14 29
e 14 30
e 14 31
e 14 32
e 14 34
e 14 35
e 14 36
e 14 37
e 14 38
e 14 41
e 14 42
e 14 43
e 14 44
e 14 45
e 15 16
e 15 18
e 15 20
e 15 21
e 15 22
e 15 24
e 15 27
e 15 31
e 15 32
e 15 33
e 15 34
e 15 35
e 15 36
e 15 37
e 15 41
e 15 44
e 16 17
e 16 18
e 16 21
e 16 23
e 16 24
e 16 26
e 16 30
e 16 31
e 16 33
e 16 35
e 16 36
e 16 37
e 16 39
e 16 40
e 16 41
e 16 42
e 16 44
e 16 45
e 17 19
e 17 21
e 17 22
e 17 23
e 17 25
e 17 29
e 17 30
e 17 32
e 17 33
e 17 34
e 17 35
e 17 36
e 17 37
e 17 38
e 17 39
e 17 40
e 17 42
e 17 44
e 17 45
e 18 19
e 18 20
e 18 21
e 18 22
e 18 24
e 18 26
e 18 27
e 18 29
e 18 30
e 18 31
e 18 32
e 18 34
e 18 36
e 18 37
e 18 38
e 18 39
e 18 41
e 18 42
e 18 45
e 19 20
e 19 21
e 19 22
e 19 23
e 19 24
e 19 30
e 19 32
e 19 33
e 19 38
e 19 39
e 19 40
e 19 42
e 19 44
e 19 45
e 20 21
e 20 22
e 20 24
e 20 25
e 20 26
e 20 28
e 20 29
e 20 30
e 20 31
e 20 32
e 20 34
e 20 35
e 20 36
e 20 37
e 20 38
e 20 41
e 20 44
e 21 22
e 21 24
e 21 25
e 21 27
e 21 28
e 21 29
e 21 31
e 21 32
e 21 33
e 21 34
e 21 35
e 21 36
e 21 37
e 21 40
e 21 41
e 21 42
e 21 43
e 21 44
e 21 45
e 22 23
e 22 24
e 22 25
e 22 26
e 22 28
e 22 29
e 22 30
e 22 32
e 22 33
e 22 35
e 22 37
e 22 38
e 22 39
e 22 40
e 22 41
e 22 45
e 23 24
e 23 26
e 23 27
e 23 29
e 23 31
e 23 34
e 23 35
e 23 37
e 23 38
e 23 39
e 23 40
e 23 41
e 23 43
e 23 44
e 24 25
e 24 27
e 24 29
e 24 34
e 24 39
e 24 41
e 24 42
e 24 45
e 25 27
e 25 28
e 25 33
e 25 34
e 25 35
e 25 36
e 25 37
e 25 38
e 25 39
e 25 40
e 25 41
e 25 42
e 25 43
e 25 44
e 25 45
e 26 27
e 26 28
e 26 29
e 26 31
e 26 32
e 26 33
e 26 34
e 26 35
e 26 37
e 26 38
e 26 39
e 26 41
e 26 42
e 26 45
e 27 28
e 27 29
e 27 30
e 27 31
e 27 32
e 27 33
e 27 35
e 27 37
e 27 38
e 27 39
e 27 40
e 27 41
e 27 43
e 27 45
e 28 29
e 28 30
e 28 33
e 28 35
e 28 36
e 28 38
e 28 39
e 28 42
e 28 43
e 29 30
e 29 31
e 29 33
e 29 34
e 29 38
e 29 39
e 29 41
e 29 42
e 29 43
e 29 44
e 29 45
e 30 32
e 30 35
e 30 36
e 30 37
e 30 39
e 30 40
e 30 42
e 30 43
e 30 44
e 30 45
e 31 32
e 31 33
e 31 34
e 31 35
e 31 36
e 31 37
e 31 39
e 31 40
e 31 41
e 31 42
e 31 43
e 31 44
e 31 45
e 32 35
e 32 36
e 32 37
e 32 38
e 32 41
e 32 43
e 32 44
e 32 45
e 33 34
e 33 35
e 33 36
e 33 37
e 33 39
e 33 40
e 33 43
e 33 45
e 34 35
e 34 36
e 34 37
e 34 39
e 34 40
e 34 42
e 35 37
e 35 38
e 35 39
e 35 40
e 35 41
e 35 42
e 35 44
e 35 45
e 36 37
e 36 38
e 36 40
e 36 41
e 36 43
e 37 38
e 37 39
e 37 42
e 37 43
e 37 44
e 38 39
e 38 40
e 38 42
e 38 43
e 38 44
e 38 45
e 39 43
e 39 45
e 40 41
e 40 43
e 40 44
e 40 45
e 41 43
e 41 44
e 41 45
e 42 43
e 43 44
